0
Node Left Objective IInf Best_Integer Best_Bound ItCnt Gap
0+ 0 nan nan 1305.7427 0.0000 nan 100.00%
0 0 657.3144 7 1305.7427 657.3144 13 49.66%
0+ 0 nan nan 998.3805 657.3144 nan 34.16%
0+ 0 nan nan 995.5764 657.3144 nan 33.98%
0+ 0 nan nan 971.6641 657.3144 nan 32.35%
0 2 657.3144 7 971.6641 657.3144 13 32.35%
CPXPARAM_MIP_Cuts_Cliques 0
1
Node Left Objective IInf Best_Integer Best_Bound ItCnt Gap
0+ 0 nan nan 1305.7427 0.0000 nan 100.00%
0 0 0 657.3144 657.3144 12 0.00% 0
CPXPARAM_MIP_Cuts_Cliques 0
2
Node Left Objective IInf Best_Integer Best_Bound ItCnt Gap
0+ 0 nan nan 1305.7427 0.0000 nan 100.00%
0 0 657.3144 7 1305.7427 657.3144 13 49.66%
0+ 0 nan nan 1178.5172 657.3144 nan 44.23%
0+ 0 nan nan 1111.9619 657.3144 nan 40.89%
0+ 0 nan nan 1043.0179 657.3144 nan 36.98%
0 2 657.3144 7 1043.0179 657.3144 13 36.98%
CPXPARAM_MIP_Cuts_Cliques 0
3
Node Left Objective IInf Best_Integer Best_Bound ItCnt Gap
0+ 0 nan nan 1305.7427 0.0000 nan 100.00%
0 0 0 687.7701 687.7701 13 0.00% 0
CPXPARAM_MIP_Cuts_Cliques 0
4
Node Left Objective IInf Best_Integer Best_Bound ItCnt Gap
0+ 0 nan nan 1093.8101 0.0000 nan 100.00%
0 0 755.3257 7 1093.8101 755.3257 13 30.95%
0+ 0 nan nan 974.8930 755.3257 nan 22.52%
0 2 755.3257 7 974.8930 755.3257 13 22.52%
CPXPARAM_MIP_Cuts_Cliques 0
5
Node Left Objective IInf Best_Integer Best_Bound ItCnt Gap
0+ 0 nan nan 1093.8101 0.0000 nan 100.00%
0 0 0 755.3257 755.3257 13 0.00% 0
CPXPARAM_MIP_Cuts_Cliques 0
6
Node Left Objective IInf Best_Integer Best_Bound ItCnt Gap
0+ 0 nan nan 1093.8101 0.0000 nan 100.00%
0 0 755.3257 7 1093.8101 755.3257 13 30.95%
0+ 0 nan nan 984.4926 755.3257 nan 23.28%
0+ 0 nan nan 910.1854 755.3257 nan 17.01%
0 2 755.3257 7 910.1854 755.3257 13 17.01%
CPXPARAM_MIP_Cuts_Cliques 0
7
Node Left Objective IInf Best_Integer Best_Bound ItCnt Gap
0+ 0 nan nan 1093.8101 0.0000 nan 100.00%
0 0 0 755.3257 755.3257 13 0.00% 0
CPXPARAM_MIP_Cuts_Cliques 0
8
Node Left Objective IInf Best_Integer Best_Bound ItCnt Gap
0+ 0 nan nan 1257.6414 0.0000 nan 100.00%
0 0 934.8049 7 1257.6414 934.8049 12 25.67%
0+ 0 nan nan 1158.9622 934.8049 nan 19.34%
0+ 0 nan nan 1113.3297 934.8049 nan 16.04%
0 2 934.8049 7 1113.3297 934.8049 12 16.04%
CPXPARAM_MIP_Cuts_Cliques 0
9
Node Left Objective IInf Best_Integer Best_Bound ItCnt Gap
0+ 0 nan nan 1257.6414 0.0000 nan 100.00%
0 0 0 934.8049 934.8049 12 0.00% 0
CPXPARAM_MIP_Cuts_Cliques 0
10
Node Left Objective IInf Best_Integer Best_Bound ItCnt Gap
0+ 0 nan nan 1257.6414 0.0000 nan 100.00%
0 0 934.8049 7 1257.6414 934.8049 12 25.67%
0+ 0 nan nan 1126.1276 934.8049 nan 16.99%
0 2 934.8049 7 1126.1276 934.8049 12 16.99%
CPXPARAM_MIP_Cuts_Cliques 0
11
Node Left Objective IInf Best_Integer Best_Bound ItCnt Gap
0+ 0 nan nan 1257.6414 0.0000 nan 100.00%
0 0 0 934.8049 934.8049 12 0.00% 0
CPXPARAM_MIP_Cuts_Cliques 0
12
Node Left Objective IInf Best_Integer Best_Bound ItCnt Gap
0+ 0 nan nan 1049.2918 0.0000 nan 100.00%
0 0 754.7681 7 1049.2918 754.7681 13 28.07%
0+ 0 nan nan 969.8309 754.7681 nan 22.18%
0+ 0 nan nan 968.8269 754.7681 nan 22.09%
0+ 0 nan nan 968.6859 754.7681 nan 22.08%
0 2 754.7681 7 968.6859 754.7681 13 22.08%
CPXPARAM_MIP_Cuts_Cliques 0
13
Node Left Objective IInf Best_Integer Best_Bound ItCnt Gap
0+ 0 nan nan 1049.2918 0.0000 nan 100.00%
0 0 0 754.7681 754.7681 13 0.00% 0
CPXPARAM_MIP_Cuts_Cliques 0
14
Node Left Objective IInf Best_Integer Best_Bound ItCnt Gap
0+ 0 nan nan 1049.2918 0.0000 nan 100.00%
0 0 754.7681 7 1049.2918 754.7681 13 28.07%
0+ 0 nan nan 969.8309 754.7681 nan 22.18%
0+ 0 nan nan 929.4885 754.7681 nan 18.80%
0 2 754.7681 7 929.4885 754.7681 13 18.80%
CPXPARAM_MIP_Cuts_Cliques 0
15
Node Left Objective IInf Best_Integer Best_Bound ItCnt Gap
0+ 0 nan nan 1049.2918 0.0000 nan 100.00%
0 0 0 754.7681 754.7681 13 0.00% 0
CPXPARAM_MIP_Cuts_Cliques 0
16
Node Left Objective IInf Best_Integer Best_Bound ItCnt Gap
0+ 0 nan nan 1035.0684 0.0000 nan 100.00%
0 0 826.5493 7 1035.0684 826.5493 12 20.15%
0+ 0 nan nan 957.8402 826.5493 nan 13.71%
0+ 0 nan nan 949.7242 826.5493 nan 12.97%
0+ 0 nan nan 942.9095 826.5493 nan 12.34%
0 2 826.5493 7 942.9095 826.5493 12 12.34%
CPXPARAM_MIP_Cuts_Cliques 0
17
Node Left Objective IInf Best_Integer Best_Bound ItCnt Gap
0+ 0 nan nan 1035.0684 0.0000 nan 100.00%
0 0 0 826.5493 826.5493 11 0.00% 0
CPXPARAM_MIP_Cuts_Cliques 0
18
Node Left Objective IInf Best_Integer Best_Bound ItCnt Gap
0+ 0 nan nan 1035.0684 0.0000 nan 100.00%
0 0 826.5493 7 1035.0684 826.5493 12 20.15%
0+ 0 nan nan 1005.6180 826.5493 nan 17.81%
0+ 0 nan nan 1002.0108 826.5493 nan 17.51%
0+ 0 nan nan 942.9095 826.5493 nan 12.34%
0 2 826.5493 7 942.9095 826.5493 12 12.34%
CPXPARAM_MIP_Cuts_Cliques 0
19
Node Left Objective IInf Best_Integer Best_Bound ItCnt Gap
0+ 0 nan nan 1035.0684 0.0000 nan 100.00%
0 0 0 826.5493 826.5493 12 0.00% 0
CPXPARAM_MIP_Cuts_Cliques 0
20
Node Left Objective IInf Best_Integer Best_Bound ItCnt Gap
0+ 0 nan nan 876.2333 0.0000 nan 100.00%
0 0 541.6124 7 876.2333 541.6124 13 38.19%
0+ 0 nan nan 805.1797 541.6124 nan 32.73%
0+ 0 nan nan 804.0602 541.6124 nan 32.64%
0 2 541.6124 7 804.0602 541.6124 13 32.64%
CPXPARAM_MIP_Cuts_Cliques 0
21
Node Left Objective IInf Best_Integer Best_Bound ItCnt Gap
0+ 0 nan nan 876.2333 0.0000 nan 100.00%
0 0 0 541.6124 541.6124 13 0.00% 0
CPXPARAM_MIP_Cuts_Cliques 0
22
Node Left Objective IInf Best_Integer Best_Bound ItCnt Gap
0+ 0 nan nan 876.2333 0.0000 nan 100.00%
0 0 541.6124 7 876.2333 541.6124 13 38.19%
0+ 0 nan nan 788.8308 541.6124 nan 31.34%
0 2 541.6124 7 788.8308 541.6124 13 31.34%
CPXPARAM_MIP_Cuts_Cliques 0
23
Node Left Objective IInf Best_Integer Best_Bound ItCnt Gap
0+ 0 nan nan 876.2333 0.0000 nan 100.00%
0 0 0 541.7229 541.7229 13 0.00% 0
CPXPARAM_MIP_Cuts_Cliques 0
24
Node Left Objective IInf Best_Integer Best_Bound ItCnt Gap
0+ 0 nan nan 887.2338 0.0000 nan 100.00%
0 0 642.7772 9 887.2338 642.7772 13 27.55%
0+ 0 nan nan 886.1129 642.7772 nan 27.46%
0+ 0 nan nan 779.5938 642.7772 nan 17.55%
0 2 642.7772 9 779.5938 642.7772 13 17.55%
CPXPARAM_MIP_Cuts_Cliques 0
25
Node Left Objective IInf Best_Integer Best_Bound ItCnt Gap
0+ 0 nan nan 887.2338 0.0000 nan 100.00%
0 0 0 642.7772 642.7772 13 0.00% 0
CPXPARAM_MIP_Cuts_Cliques 0
26
Node Left Objective IInf Best_Integer Best_Bound ItCnt Gap
0+ 0 nan nan 887.2338 0.0000 nan 100.00%
0 0 644.4100 7 887.2338 644.4100 13 27.37%
0+ 0 nan nan 878.4065 644.4100 nan 26.64%
0+ 0 nan nan 862.9347 644.4100 nan 25.32%
0+ 0 nan nan 843.7179 644.4100 nan 23.62%
0 2 644.4100 7 843.7179 644.4100 13 23.62%
CPXPARAM_MIP_Cuts_Cliques 0
27
Node Left Objective IInf Best_Integer Best_Bound ItCnt Gap
0+ 0 nan nan 887.2338 0.0000 nan 100.00%
0 0 0 642.7772 642.7772 13 0.00% 0
CPXPARAM_MIP_Cuts_Cliques 0
28
Node Left Objective IInf Best_Integer Best_Bound ItCnt Gap
0+ 0 nan nan 1282.4128 0.0000 nan 100.00%
0 0 999.8318 7 1282.4128 999.8318 13 22.04%
0+ 0 nan nan 1189.3122 999.8318 nan 15.93%
0+ 0 nan nan 1189.2494 999.8318 nan 15.93%
0+ 0 nan nan 1171.0746 999.8318 nan 14.62%
0 2 999.8318 7 1171.0746 999.8318 13 14.62%
CPXPARAM_MIP_Cuts_Cliques 0
29
Node Left Objective IInf Best_Integer Best_Bound ItCnt Gap
0+ 0 nan nan 1282.4128 0.0000 nan 100.00%
0 0 0 999.8318 999.8318 12 0.00% 0
CPXPARAM_MIP_Cuts_Cliques 0
30
Node Left Objective IInf Best_Integer Best_Bound ItCnt Gap
0+ 0 nan nan 1282.4128 0.0000 nan 100.00%
0 0 999.8318 7 1282.4128 999.8318 14 22.04%
0+ 0 nan nan 1196.7405 999.8318 nan 16.45%
0+ 0 nan nan 1117.4686 999.8318 nan 10.53%
0 2 999.8318 7 1117.4686 999.8318 14 10.53%
CPXPARAM_MIP_Cuts_Cliques 0
31
Node Left Objective IInf Best_Integer Best_Bound ItCnt Gap
0+ 0 nan nan 1282.4128 0.0000 nan 100.00%
0 0 0 999.8318 999.8318 12 0.00% 0
CPXPARAM_MIP_Cuts_Cliques 0
32
Node Left Objective IInf Best_Integer Best_Bound ItCnt Gap
0+ 0 nan nan 1050.1311 0.0000 nan 100.00%
0 0 640.1126 7 1050.1311 640.1126 12 39.04%
0+ 0 nan nan 805.8326 640.1126 nan 20.57%
0 2 640.1126 7 805.8326 640.1126 12 20.57%
CPXPARAM_MIP_Cuts_Cliques 0
33
Node Left Objective IInf Best_Integer Best_Bound ItCnt Gap
0+ 0 nan nan 1050.1311 0.0000 nan 100.00%
0 0 0 640.1126 640.1126 12 0.00% 0
CPXPARAM_MIP_Cuts_Cliques 0
34
Node Left Objective IInf Best_Integer Best_Bound ItCnt Gap
0+ 0 nan nan 1050.1311 0.0000 nan 100.00%
0 0 640.1126 7 1050.1311 640.1126 13 39.04%
0+ 0 nan nan 961.7698 640.1126 nan 33.44%
0+ 0 nan nan 942.4277 640.1126 nan 32.08%
0+ 0 nan nan 925.4401 640.1126 nan 30.83%
0 2 640.1126 7 925.4401 640.1126 13 30.83%
CPXPARAM_MIP_Cuts_Cliques 0
35
Node Left Objective IInf Best_Integer Best_Bound ItCnt Gap
0+ 0 nan nan 1050.1311 0.0000 nan 100.00%
0 0 0 640.1126 640.1126 12 0.00% 0
CPXPARAM_MIP_Cuts_Cliques 0
36
Node Left Objective IInf Best_Integer Best_Bound ItCnt Gap
0+ 0 nan nan 1177.1346 0.0000 nan 100.00%
0 0 763.3807 7 1177.1346 763.3807 13 35.15%
0+ 0 nan nan 1038.0308 763.3807 nan 26.46%
0+ 0 nan nan 998.6940 763.3807 nan 23.56%
0 2 763.3807 7 998.6940 763.3807 13 23.56%
CPXPARAM_MIP_Cuts_Cliques 0
37
Node Left Objective IInf Best_Integer Best_Bound ItCnt Gap
0+ 0 nan nan 1177.1346 0.0000 nan 100.00%
0 0 0 763.3807 763.3807 13 0.00% 0
CPXPARAM_MIP_Cuts_Cliques 0
38
Node Left Objective IInf Best_Integer Best_Bound ItCnt Gap
0+ 0 nan nan 1177.1346 0.0000 nan 100.00%
0 0 763.3807 7 1177.1346 763.3807 13 35.15%
0+ 0 nan nan 1041.5566 763.3807 nan 26.71%
0+ 0 nan nan 1034.6493 763.3807 nan 26.22%
0+ 0 nan nan 967.8213 763.3807 nan 21.12%
0 2 763.3807 7 967.8213 763.3807 13 21.12%
CPXPARAM_MIP_Cuts_Cliques 0
39
Node Left Objective IInf Best_Integer Best_Bound ItCnt Gap
0+ 0 nan nan 1177.1346 0.0000 nan 100.00%
0 0 0 763.3807 763.3807 13 0.00% 0
CPXPARAM_MIP_Cuts_Cliques 0
